p wcnf 200 400 401 
1 -131 35 0 
1 -103 -71 0 
1 57 93 0 
1 -112 -147 0 
1 -17 105 0 
1 -76 -131 0 
1 76 182 0 
1 24 -58 0 
1 3 -29 0 
1 156 -35 0 
1 143 -32 0 
1 -145 -23 0 
1 64 178 0 
1 80 -159 0 
1 101 27 0 
1 -63 -17 0 
1 -8 133 0 
1 134 160 0 
1 -84 7 0 
1 -137 -107 0 
1 178 166 0 
1 48 131 0 
1 -154 -78 0 
1 -43 -57 0 
1 90 -143 0 
1 175 -73 0 
1 -23 83 0 
1 128 -99 0 
1 -37 -94 0 
1 189 -142 0 
1 -106 192 0 
1 -128 187 0 
1 -27 -141 0 
1 -78 99 0 
1 72 192 0 
1 136 -75 0 
1 -146 -18 0 
1 -158 4 0 
1 140 195 0 
1 -15 -153 0 
1 139 -43 0 
1 -74 -175 0 
1 92 110 0 
1 -104 48 0 
1 5 159 0 
1 28 162 0 
1 -2 -24 0 
1 -90 120 0 
1 -194 -149 0 
1 -37 -50 0 
1 105 64 0 
1 -122 121 0 
1 39 -94 0 
1 -48 -157 0 
1 96 16 0 
1 -192 151 0 
1 139 46 0 
1 112 84 0 
1 193 64 0 
1 139 -159 0 
1 172 -3 0 
1 -56 -142 0 
1 14 -31 0 
1 18 195 0 
1 159 19 0 
1 40 -85 0 
1 62 83 0 
1 47 35 0 
1 93 -162 0 
1 166 -77 0 
1 89 -199 0 
1 106 -5 0 
1 -170 121 0 
1 -157 14 0 
1 -196 14 0 
1 112 -183 0 
1 69 23 0 
1 131 80 0 
1 -1 135 0 
1 127 -29 0 
1 155 89 0 
1 -59 -185 0 
1 114 194 0 
1 -43 -101 0 
1 179 129 0 
1 -108 -187 0 
1 72 -4 0 
1 -75 67 0 
1 -37 -138 0 
1 154 196 0 
1 -145 -53 0 
1 53 -37 0 
1 178 -94 0 
1 56 -128 0 
1 -83 -37 0 
1 -24 73 0 
1 49 -195 0 
1 -121 -57 0 
1 -73 -88 0 
1 148 -197 0 
1 -194 57 0 
1 139 130 0 
1 -122 -116 0 
1 -128 40 0 
1 131 165 0 
1 31 67 0 
1 97 89 0 
1 -96 101 0 
1 -136 187 0 
1 -10 -105 0 
1 191 170 0 
1 150 -57 0 
1 80 188 0 
1 138 9 0 
1 134 -94 0 
1 -102 182 0 
1 -170 -44 0 
1 53 -42 0 
1 -126 79 0 
1 146 -165 0 
1 84 42 0 
1 18 167 0 
1 -29 -77 0 
1 94 24 0 
1 21 -150 0 
1 -94 100 0 
1 -27 -91 0 
1 -83 -120 0 
1 -25 -182 0 
1 -174 77 0 
1 197 198 0 
1 -196 136 0 
1 164 41 0 
1 -20 99 0 
1 199 -40 0 
1 -92 -77 0 
1 -185 178 0 
1 -199 89 0 
1 -151 -92 0 
1 151 189 0 
1 164 169 0 
1 -129 -191 0 
1 183 -79 0 
1 -139 -28 0 
1 140 149 0 
1 -98 198 0 
1 94 27 0 
1 -5 63 0 
1 185 -181 0 
1 156 -78 0 
1 86 -4 0 
1 75 18 0 
1 91 50 0 
1 164 -113 0 
1 157 -179 0 
1 38 -116 0 
1 38 -3 0 
1 -160 -104 0 
1 -200 198 0 
1 -120 192 0 
1 -34 33 0 
1 24 23 0 
1 84 -98 0 
1 -53 -45 0 
1 157 -104 0 
1 13 -123 0 
1 -150 34 0 
1 93 -123 0 
1 -129 -91 0 
1 -89 -150 0 
1 70 63 0 
1 -175 171 0 
1 -154 -157 0 
1 161 97 0 
1 22 -121 0 
1 94 -33 0 
1 87 -73 0 
1 -163 121 0 
1 -196 -88 0 
1 28 94 0 
1 -109 -174 0 
1 -84 -18 0 
1 -132 83 0 
1 120 123 0 
1 167 -191 0 
1 -161 167 0 
1 -162 100 0 
1 76 105 0 
1 -172 78 0 
1 -117 16 0 
1 147 -71 0 
1 -24 -29 0 
1 -153 78 0 
1 -166 126 0 
1 114 -108 0 
1 -123 -59 0 
1 52 -62 0 
1 61 -173 0 
1 6 99 0 
1 -186 98 0 
1 -30 136 0 
1 199 166 0 
1 -111 127 0 
1 -145 -76 0 
1 -15 35 0 
1 -67 -40 0 
1 16 -121 0 
1 11 -69 0 
1 -168 -178 0 
1 185 106 0 
1 66 53 0 
1 172 87 0 
1 97 -28 0 
1 68 132 0 
1 66 -20 0 
1 -137 98 0 
1 54 -25 0 
1 75 41 0 
1 23 -89 0 
1 -155 165 0 
1 86 -68 0 
1 191 -59 0 
1 -109 -53 0 
1 -143 -58 0 
1 -10 43 0 
1 -70 -21 0 
1 100 36 0 
1 -38 47 0 
1 75 -121 0 
1 -95 91 0 
1 105 37 0 
1 49 29 0 
1 59 -196 0 
1 144 140 0 
1 -159 168 0 
1 -77 168 0 
1 -118 -124 0 
1 -148 68 0 
1 138 179 0 
1 28 135 0 
1 -163 -123 0 
1 -60 -134 0 
1 -130 200 0 
1 -110 -187 0 
1 143 181 0 
1 30 -122 0 
1 -86 -200 0 
1 40 8 0 
1 -89 72 0 
1 99 45 0 
1 119 28 0 
1 -161 -132 0 
1 -160 128 0 
1 135 -109 0 
1 199 -25 0 
1 120 -14 0 
1 -173 139 0 
1 23 -19 0 
1 103 -155 0 
1 -142 -28 0 
1 142 125 0 
1 -133 151 0 
1 76 -193 0 
1 -114 -53 0 
1 22 15 0 
1 8 185 0 
1 160 -75 0 
1 73 -6 0 
1 -167 1 0 
1 -150 167 0 
1 -71 -175 0 
1 -107 -116 0 
1 69 71 0 
1 46 9 0 
1 149 -92 0 
1 -158 7 0 
1 4 -199 0 
1 115 198 0 
1 -36 -113 0 
1 -90 -112 0 
1 -61 129 0 
1 -127 -28 0 
1 160 67 0 
1 16 101 0 
1 -145 -139 0 
1 114 136 0 
1 -8 -82 0 
1 -197 -34 0 
1 111 -123 0 
1 126 147 0 
1 98 -107 0 
1 71 -151 0 
1 -169 116 0 
1 -196 -38 0 
1 -149 -191 0 
1 -71 177 0 
1 35 -92 0 
1 62 -87 0 
1 -80 45 0 
1 -103 198 0 
1 82 126 0 
1 -147 -46 0 
1 -130 184 0 
1 126 168 0 
1 6 -146 0 
1 69 -65 0 
1 198 29 0 
1 -193 83 0 
1 -181 -26 0 
1 26 183 0 
1 187 180 0 
1 20 180 0 
1 -185 167 0 
1 -114 171 0 
1 -168 -132 0 
1 105 133 0 
1 95 49 0 
1 -24 169 0 
1 27 -82 0 
1 -198 2 0 
1 123 -99 0 
1 -178 14 0 
1 191 -2 0 
1 -124 56 0 
1 -151 133 0 
1 -40 21 0 
1 -147 24 0 
1 47 -68 0 
1 -112 43 0 
1 -77 -31 0 
1 164 -193 0 
1 125 -79 0 
1 -172 134 0 
1 -32 121 0 
1 102 178 0 
1 53 52 0 
1 117 168 0 
1 41 112 0 
1 155 -108 0 
1 -182 100 0 
1 -63 -190 0 
1 -33 -188 0 
1 158 -101 0 
1 57 172 0 
1 -1 72 0 
1 -30 151 0 
1 -181 61 0 
1 179 -110 0 
1 127 152 0 
1 11 110 0 
1 65 -16 0 
1 -118 176 0 
1 -148 155 0 
1 -199 -161 0 
1 15 143 0 
1 -160 143 0 
1 145 -59 0 
1 -2 72 0 
1 39 8 0 
1 115 162 0 
1 107 47 0 
1 169 -82 0 
1 -155 165 0 
1 101 -15 0 
1 -98 162 0 
1 -47 96 0 
1 -17 167 0 
1 152 -10 0 
1 45 42 0 
1 -131 4 0 
1 -95 10 0 
1 108 -119 0 
1 -157 -19 0 
1 -131 -56 0 
1 -87 178 0 
1 138 45 0 
1 68 -13 0 
1 149 167 0 
1 13 116 0 
1 -68 168 0 
1 -166 -195 0 
1 27 -93 0 
1 54 35 0 
1 -169 158 0 
1 -169 146 0 
1 199 -168 0 
1 -198 39 0 
1 -51 179 0 
1 -55 -9 0 
1 -102 -185 0 
1 2 100 0 
1 -140 162 0 
1 -141 -91 0 
1 -74 -181 0 
1 -31 -28 0 
1 129 156 0 
1 -1 -103 0 
1 -103 60 0 
1 126 -2 0 
1 -93 7 0 
